# Solution for model r5_t18_m0_1 Batch Number: 2
# Finished Task: 18 / 18
# Makespan: 448.0, Total Distance: 405.0, Total Time: 1.8614
# R O S F Batch
0 0 5 0.0 0.0 -1
1 1 14 0.0 0.0 -1
2 2 20 0.0 0.0 -1
3 3 21 0.0 0.0 -1
4 4 19 0.0 0.0 -1
5 0 10 358.0 379.0 0
6 4 -1 418.0 448.0 1
7 3 -1 206.0 234.0 1
8 2 17 113.0 144.0 0
9 1 18 107.0 146.0 0
10 0 -1 392.0 431.0 1
11 4 6 341.0 379.0 0
12 2 -1 398.0 434.0 1
13 1 -1 379.0 418.0 1
14 1 9 66.0 97.0 0
15 2 12 338.0 368.0 1
16 2 15 253.0 281.0 1
17 2 16 192.0 225.0 1
18 1 22 165.0 188.0 0
19 4 11 202.0 235.0 0
20 2 8 27.0 60.0 0
21 3 7 96.0 126.0 0
22 1 13 200.0 233.0 0
